2
21
33
40	34
1	2	22	3	19	3	
2	2	10	6	19	2	
3	1	8	12	
4	1	10	7	
5	1	26	4	
6	2	13	5	8	7	
7	2	12	8	8	17	
8	1	16	7	
9	2	21	3	7	16	
10	1	15	7	
11	1	6	18	
12	2	19	3	11	6	
13	2	31	3	16	8	
14	1	8	7	
15	2	34	3	6	13	
16	1	7	9	
17	2	5	10	16	2	
18	2	6	14	29	3	
19	2	32	3	21	3	
20	2	16	4	10	7	
21	1	4	11	
